
<<< setup


<<< generate

CPXPARAM_TimeLimit                               9999
Tried aggregator 1 time.
MIP Presolve eliminated 39 rows and 39 columns.
Reduced MIP has 1681 rows, 3161 columns, and 9404 nonzeros.
Reduced MIP has 1600 binaries, 1561 generals, 0 SOSs, and 0 indicators.
Presolve time = 0,01 sec. (5,08 ticks)
Probing fixed 39 vars, tightened 0 bounds.
Probing time = 0,04 sec. (25,16 ticks)
Cover probing fixed 0 vars, tightened 1521 bounds.
Tried aggregator 1 time.
MIP Presolve eliminated 41 rows and 79 columns.
MIP Presolve modified 1522 coefficients.
Reduced MIP has 1640 rows, 3082 columns, and 9206 nonzeros.
Reduced MIP has 1561 binaries, 1521 generals, 0 SOSs, and 0 indicators.
Presolve time = 0,01 sec. (8,92 ticks)
Probing time = 0,01 sec. (3,66 ticks)
Clique table members: 80.
MIP emphasis: balance optimality and feasibility.
MIP search method: dynamic search.
Parallel mode: deterministic, using up to 4 threads.
Root relaxation solution time = 0,05 sec. (59,02 ticks)

        Nodes                                         Cuts/
   Node  Left     Objective  IInf  Best Integer    Best Bound    ItCnt     Gap

      0     0       48,3441    95                     48,3441     1059         
      0     0       51,2475   134                   Cuts: 120     1390         
      0     0       52,8385   172                    Cuts: 58     1855         
      0     0       54,3698   168                    Cuts: 38     2019         
      0     0       56,1751   173                    Cuts: 24     2145         
      0     0       56,1920   185                    Cuts: 18     2288         
*     0+    0                          182,7121       56,1920            69,25%
      0     0       56,2003   182      182,7121      Cuts: 11     2309   69,24%
*     0+    0                          114,1995       56,2003            50,79%
*     0+    0                           92,6085       56,2003            39,31%
      0     2       56,2003   182       92,6085       59,5643     2309   35,68%
Elapsed time = 1,60 sec. (1073,37 ticks, tree = 0,01 MB, solutions = 3)
     51    47       56,9261   121       92,6085       59,5643     7822   35,68%
    140   134       58,1569   121       92,6085       59,5643    19724   35,68%
    228   199       65,2735    84       92,6085       59,5643    27961   35,68%
    294   283       67,6245   106       92,6085       59,5643    42061   35,68%
    399   376       86,9051     4       92,6085       59,5643    52149   35,68%
*   407   376      integral     0       87,5102       59,5643    52212   31,93%
    485   435       56,7612   154       87,5102       59,5643    60719   31,93%
    570   503       58,8574   118       87,5102       59,5643    72934   31,93%
*   653   604      integral     0       81,1932       59,5643    87133   26,64%
    683   565       57,0754   154       81,1932       59,5643    87437   26,64%
    762   646       59,1095   118       81,1932       59,5643   104001   26,64%
*   801+  662                           81,0515       59,5643            26,51%
*  1191+  708                           78,2303       61,0755            21,93%
*  1191+  472                           77,1818       62,6979            18,77%
*  1191+  314                           66,8499       62,8860             5,93%
*  1191+  209                           64,9924       62,9329             3,17%
*  1191+  138                           63,4346       63,0792             0,56%
*  1191     0      integral     0       63,4346       63,4346   175425    0,00%
Elapsed time = 9,84 sec. (6149,11 ticks, tree = 0,01 MB, solutions = 11)

GUB cover cuts applied:  5
Cover cuts applied:  3
Implied bound cuts applied:  20
Flow cuts applied:  106
Mixed integer rounding cuts applied:  25
Zero-half cuts applied:  20
Multi commodity flow cuts applied:  2
Lift and project cuts applied:  29
Gomory fractional cuts applied:  1

Root node processing (before b&c):
  Real time             =    1,59 sec. (1072,34 ticks)
Parallel b&c, 4 threads:
  Real time             =    8,25 sec. (5077,04 ticks)
  Sync time (average)   =    0,34 sec.
  Wait time (average)   =    0,00 sec.
                          ------------
Total (root+branch&cut) =    9,84 sec. (6149,38 ticks)

<<< solve


OBJECTIVE: 63.43458
12/18/2018 23:59:14 718
solving time ~= 9861.483886719
Done
 [[0 0 0 0 0 0 0 13 0 0 0 0 0 0 0 0 0 0 0 0 0 0 0 0 0 0 0 0 0 0 0 0 0 0 0 0
         0 0 0 0]
         [0 0 0 9 0 0 0 0 0 0 0 0 0 0 0 0 0 0 0 0 0 0 0 0 0 0 0 0 0 0 0 0 0
         0 0 0 0 0 0 0]
         [14 0 0 0 0 0 0 0 0 0 0 0 0 0 0 0 0 0 0 0 0 0 0 0 0 0 0 0 0 0 0 0
         0 0 0 0 0 0 0 0]
         [0 0 0 0 0 8 0 0 0 0 0 0 0 0 0 0 0 0 0 0 0 0 0 0 0 0 0 0 0 0 0 0 0
         0 0 0 0 0 0 0]
         [0 10 0 0 0 0 0 0 0 0 0 0 0 0 0 0 0 0 0 0 0 0 0 0 0 0 0 0 0 0 0 0
         0 0 0 0 0 0 0 0]
         [0 0 0 0 0 0 0 0 0 0 0 0 0 0 7 0 0 0 0 0 0 0 0 0 0 0 0 0 0 0 0 0 0
         0 0 0 0 0 0 0]
         [0 0 0 0 11 0 0 0 0 0 0 0 0 0 0 0 0 0 0 0 0 0 0 0 0 0 0 0 0 0 0 0
         0 0 0 0 0 0 0 0]
         [0 0 0 0 0 0 12 0 0 0 0 0 0 0 0 0 0 0 0 0 0 0 0 0 0 0 0 0 0 0 0 0
         0 0 0 0 0 0 0 0]
         [0 0 0 0 0 0 0 0 0 0 0 0 0 29 0 0 0 0 0 0 0 0 0 0 0 0 0 0 0 0 0 0
         0 0 0 0 0 0 0 0]
         [0 0 15 0 0 0 0 0 0 0 0 0 0 0 0 0 0 0 0 0 0 0 0 0 0 0 0 0 0 0 0 0
         0 0 0 0 0 0 0 0]
         [0 0 0 0 0 0 0 0 30 0 0 0 0 0 0 0 0 0 0 0 0 0 0 0 0 0 0 0 0 0 0 0
         0 0 0 0 0 0 0 0]
         [0 0 0 0 0 0 0 0 0 16 0 0 0 0 0 0 0 0 0 0 0 0 0 0 0 0 0 0 0 0 0 0
         0 0 0 0 0 0 0 0]
         [0 0 0 0 0 0 0 0 0 0 31 0 0 0 0 0 0 0 0 0 0 0 0 0 0 0 0 0 0 0 0 0
         0 0 0 0 0 0 0 0]
         [0 0 0 0 0 0 0 0 0 0 0 0 0 0 0 28 0 0 0 0 0 0 0 0 0 0 0 0 0 0 0 0
         0 0 0 0 0 0 0 0]
         [0 0 0 0 0 0 0 0 0 0 0 0 0 0 0 0 6 0 0 0 0 0 0 0 0 0 0 0 0 0 0 0 0
         0 0 0 0 0 0 0]
         [0 0 0 0 0 0 0 0 0 0 0 0 0 0 0 0 0 0 0 0 27 0 0 0 0 0 0 0 0 0 0 0
         0 0 0 0 0 0 0 0]
         [0 0 0 0 0 0 0 0 0 0 0 0 0 0 0 0 0 0 0 0 0 5 0 0 0 0 0 0 0 0 0 0 0
         0 0 0 0 0 0 0]
         [0 0 0 0 0 0 0 0 0 0 0 0 32 0 0 0 0 0 0 0 0 0 0 0 0 0 0 0 0 0 0 0
         0 0 0 0 0 0 0 0]
         [0 0 0 0 0 0 0 0 0 0 0 17 0 0 0 0 0 0 0 0 0 0 0 0 0 0 0 0 0 0 0 0
         0 0 0 0 0 0 0 0]
         [0 0 0 0 0 0 0 0 0 0 0 0 0 0 0 0 0 33 0 0 0 0 0 0 0 0 0 0 0 0 0 0
         0 0 0 0 0 0 0 0]
         [0 0 0 0 0 0 0 0 0 0 0 0 0 0 0 0 0 0 0 0 0 0 0 0 26 0 0 0 0 0 0 0
         0 0 0 0 0 0 0 0]
         [0 0 0 0 0 0 0 0 0 0 0 0 0 0 0 0 0 0 0 0 0 0 0 0 0 4 0 0 0 0 0 0 0
         0 0 0 0 0 0 0]
         [0 0 0 0 0 0 0 0 0 0 0 0 0 0 0 0 0 0 18 0 0 0 0 0 0 0 0 0 0 0 0 0
         0 0 0 0 0 0 0 0]
         [0 0 0 0 0 0 0 0 0 0 0 0 0 0 0 0 0 0 0 34 0 0 0 0 0 0 0 0 0 0 0 0
         0 0 0 0 0 0 0 0]
         [0 0 0 0 0 0 0 0 0 0 0 0 0 0 0 0 0 0 0 0 0 0 0 0 0 0 0 0 25 0 0 0
         0 0 0 0 0 0 0 0]
         [0 0 0 0 0 0 0 0 0 0 0 0 0 0 0 0 0 0 0 0 0 0 0 0 0 0 0 0 0 3 0 0 0
         0 0 0 0 0 0 0]
         [0 0 0 0 0 0 0 0 0 0 0 0 0 0 0 0 0 0 0 0 0 0 19 0 0 0 0 0 0 0 0 0
         0 0 0 0 0 0 0 0]
         [0 0 0 0 0 0 0 0 0 0 0 0 0 0 0 0 0 0 0 0 0 0 0 35 0 0 0 0 0 0 0 0
         0 0 0 0 0 0 0 0]
         [0 0 0 0 0 0 0 0 0 0 0 0 0 0 0 0 0 0 0 0 0 0 0 0 0 0 0 0 0 0 0 0 0
         0 0 24 0 0 0 0]
         [0 0 0 0 0 0 0 0 0 0 0 0 0 0 0 0 0 0 0 0 0 0 0 0 0 0 0 0 0 0 0 0 0
         0 0 0 0 0 0 2]
         [0 0 0 0 0 0 0 0 0 0 0 0 0 0 0 0 0 0 0 0 0 0 0 0 0 0 0 36 0 0 0 0
         0 0 0 0 0 0 0 0]
         [0 0 0 0 0 0 0 0 0 0 0 0 0 0 0 0 0 0 0 0 0 0 0 0 0 0 20 0 0 0 0 0
         0 0 0 0 0 0 0 0]
         [0 0 0 0 0 0 0 0 0 0 0 0 0 0 0 0 0 0 0 0 0 0 0 0 0 0 0 0 0 0 37 0
         0 0 0 0 0 0 0 0]
         [0 0 0 0 0 0 0 0 0 0 0 0 0 0 0 0 0 0 0 0 0 0 0 0 0 0 0 0 0 0 0 21
         0 0 0 0 0 0 0 0]
         [0 0 0 0 0 0 0 0 0 0 0 0 0 0 0 0 0 0 0 0 0 0 0 0 0 0 0 0 0 0 0 0 38
         0 0 0 0 0 0 0]
         [0 0 0 0 0 0 0 0 0 0 0 0 0 0 0 0 0 0 0 0 0 0 0 0 0 0 0 0 0 0 0 0 0
         0 0 0 0 23 0 0]
         [0 0 0 0 0 0 0 0 0 0 0 0 0 0 0 0 0 0 0 0 0 0 0 0 0 0 0 0 0 0 0 0 0
         0 39 0 0 0 0 0]
         [0 0 0 0 0 0 0 0 0 0 0 0 0 0 0 0 0 0 0 0 0 0 0 0 0 0 0 0 0 0 0 0 0
         22 0 0 0 0 0 0]
         [0 0 0 0 0 0 0 0 0 0 0 0 0 0 0 0 0 0 0 0 0 0 0 0 0 0 0 0 0 0 0 0 0
         0 0 0 40 0 0 0]
         [0 0 0 0 0 0 0 0 0 0 0 0 0 0 0 0 0 0 0 0 0 0 0 0 0 0 0 0 0 0 0 0 0
         0 0 0 0 0 1 0]]

<<< post process


<<< done

